n_machines = 3;
n_resources = 6;
n_jobs = 60;
horizon = 303;
LB = 101;
n_jobs_per_resource = [10, 10, 10, 10, 10, 10];
duration = [9, 5, 2, 8, 6, 9, 5, 9, 5, 7, 6, 8, 5, 4, 5, 6, 4, 6, 4, 8, 7, 9, 2, 6, 7, 6, 9, 9, 2, 1, 2, 5, 1, 1, 6, 4, 8, 2, 2, 2, 6, 5, 4, 4, 7, 1, 2, 4, 6, 2, 7, 3, 1, 2, 9, 7, 9, 1, 7, 4]